n = 50;
C = 269;
w = [109,396,46,209,375,438,381,499,428,423,182,421,42,375,30,489,202,293,255,305,176,81,476,218,500,216,206,475,123,499,249,34,312,324,261,182,383,280,414,39,177,343,112,256,138,480,311,124,17,186];
p = [225,44,303,482,218,404,185,18,146,413,42,433,189,321,254,454,186,231,485,204,177,178,198,301,430,355,341,360,367,158,481,320,130,29,219,402,353,193,209,99,456,28,36,284,347,397,462,464,401,436];
